NAME : prob10d
TYPE : PDTSP
DIMENSION : 21
EDGE_WEIGHT_TYPE : EUC_2D
NODE_COORD_SECTION
1 91 8
2 60 742
3 730 471
4 964 151
5 336 763
6 330 593
7 496 333
8 168 403
9 343 502
10 600 534
11 18 952
12 34 697
13 390 845
14 39 78
15 11 332
16 570 862
17 88 346
18 432 341
19 525 846
20 582 615
21 494 605
PICKUP_AND_DELIVERY_SECTION
1 0 0 0 0 0 0
2 0 0 0 0 12 0
3 0 0 0 0 13 0
4 0 0 0 0 14 0
5 0 0 0 0 15 0
6 0 0 0 0 16 0
7 0 0 0 0 17 0
8 0 0 0 0 18 0
9 0 0 0 0 19 0
10 0 0 0 0 20 0
11 0 0 0 0 21 0
12 0 0 0 0 0 2
13 0 0 0 0 0 3
14 0 0 0 0 0 4
15 0 0 0 0 0 5
16 0 0 0 0 0 6
17 0 0 0 0 0 7
18 0 0 0 0 0 8
19 0 0 0 0 0 9
20 0 0 0 0 0 10
21 0 0 0 0 0 11
DEPOT_SECTION
1 
-1
EOF
